data/mip_solutions/chen_grossmann_miller/reduced_transportation/unbalanced10_cplex.sol
Elapsed time: 64.9193069935
Nodes explored: 3547
Upper bound: 25.0
Lower bound: 24.0
y[0,0]=1
y[0,2]=1
y[0,4]=1
y[0,6]=1
y[0,8]=1
y[1,1]=1
y[1,3]=1
y[2,4]=1
y[2,7]=1
y[3,0]=1
y[3,10]=1
y[4,0]=1
y[4,3]=1
y[4,8]=1
y[5,0]=1
y[5,5]=1
y[5,9]=1
y[6,9]=1
y[7,1]=1
y[8,0]=1
y[8,10]=1
y[9,0]=1
y[10,0]=1
y[10,4]=1
y[11,0]=1
q[0,2,0,5]=60.0
q[0,3,0,3]=60.0
q[0,4,0,4]=90.0
q[0,4,4,4]=30.0
q[0,5,0,5]=30.0
q[0,5,4,5]=15.0
q[0,5,6,5]=15.0
q[0,6,4,6]=15.0
q[0,6,4,8]=23.0
q[0,6,6,6]=15.0
q[0,6,6,8]=7.0
q[0,7,4,7]=20.0
q[0,7,4,8]=25.0
q[0,7,6,7]=15.0
q[0,8,0,8]=138.0
q[0,8,2,8]=4.0
q[0,8,6,8]=38.0
q[0,9,0,9]=30.0
q[0,9,2,9]=8.0
q[0,9,4,9]=40.0
q[0,9,4,14]=6.0
q[0,9,6,9]=30.0
q[0,9,6,10]=6.0
q[0,10,0,10]=45.0
q[0,10,2,10]=12.0
q[0,10,4,10]=53.0
q[0,10,6,10]=39.0
q[0,10,6,11]=31.0
q[0,11,0,11]=20.0
q[0,11,0,12]=5.0
q[0,11,2,11]=16.0
q[0,11,4,11]=60.0
q[0,11,6,11]=29.0
q[0,11,8,11]=110.0
q[0,12,0,12]=3.0
q[0,12,2,12]=4.0
q[0,12,4,12]=18.0
q[0,12,8,12]=35.0
q[0,13,0,13]=42.0
q[0,13,2,13]=12.0
q[0,13,4,13]=51.0
q[0,13,8,13]=75.0
q[0,14,2,14]=4.0
q[0,14,2,15]=12.0
q[0,14,4,14]=11.0
q[0,14,8,14]=25.0
q[0,14,8,15]=8.0
q[0,15,2,17]=4.0
q[0,15,2,18]=19.0
q[0,15,8,15]=157.0
q[0,16,2,16]=4.0
q[0,16,2,18]=1.0
q[0,16,8,16]=55.0
q[1,7,3,7]=5.0
q[1,7,3,8]=15.0
q[1,8,3,8]=60.0
q[1,9,1,10]=12.0
q[1,9,1,11]=4.0
q[1,9,1,14]=24.0
q[1,10,1,11]=12.0
q[1,10,1,12]=4.0
q[1,10,1,13]=22.0
q[1,10,1,15]=22.0
q[1,11,1,11]=80.0
q[1,12,1,12]=20.0
q[1,13,1,13]=60.0
q[1,14,1,15]=20.0
q[1,15,1,15]=30.0
q[1,15,1,17]=30.0
q[1,16,1,16]=20.0
q[2,4,4,4]=10.0
q[2,5,4,5]=5.0
q[2,6,4,6]=5.0
q[2,7,4,8]=3.0
q[2,7,7,7]=2.0
q[2,8,4,8]=9.0
q[2,8,7,8]=6.0
q[2,9,7,9]=4.0
q[2,9,7,10]=6.0
q[2,10,4,10]=7.0
q[2,10,7,11]=8.0
q[2,11,4,11]=20.0
q[2,12,4,12]=2.0
q[2,12,7,12]=2.0
q[2,12,7,15]=1.0
q[2,13,4,13]=9.0
q[2,13,7,13]=6.0
q[2,14,4,14]=3.0
q[2,14,7,14]=2.0
q[2,15,7,15]=5.0
q[3,9,0,9]=160.0
q[3,10,0,10]=240.0
q[3,11,0,11]=320.0
q[3,12,0,12]=62.0
q[3,12,10,19]=18.0
q[3,13,0,13]=240.0
q[3,14,10,19]=80.0
q[3,15,10,19]=240.0
q[3,16,10,19]=80.0
q[3,17,10,19]=80.0
q[3,18,10,19]=80.0
q[4,1,0,1]=60.0
q[4,2,0,2]=30.0
q[4,3,0,4]=5.0
q[4,3,3,3]=25.0
q[4,4,3,4]=50.0
q[4,4,3,5]=10.0
q[4,5,0,5]=15.0
q[4,5,3,5]=15.0
q[4,6,0,7]=5.0
q[4,6,3,6]=25.0
q[4,7,0,8]=10.0
q[4,7,3,7]=20.0
q[4,8,0,8]=90.0
q[4,9,0,9]=10.0
q[4,9,3,9]=50.0
q[4,10,0,10]=15.0
q[4,10,3,10]=75.0
q[4,11,3,11]=100.0
q[4,11,8,12]=20.0
q[4,12,0,12]=30.0
q[4,13,8,13]=90.0
q[4,14,8,14]=30.0
q[5,3,9,4]=30.0
q[5,3,9,5]=10.0
q[5,4,0,4]=67.0
q[5,4,9,5]=13.0
q[5,5,0,5]=35.0
q[5,5,9,5]=5.0
q[5,6,9,6]=28.0
q[5,6,9,8]=12.0
q[5,7,0,7]=10.0
q[5,7,9,7]=30.0
q[5,8,0,8]=50.0
q[5,8,9,8]=70.0
q[5,9,9,9]=60.0
q[5,9,9,12]=20.0
q[5,10,5,13]=28.0
q[5,10,9,10]=84.0
q[5,10,9,12]=8.0
q[5,11,5,13]=52.0
q[5,11,9,11]=108.0
q[5,12,5,13]=40.0
q[5,13,5,14]=20.0
q[5,13,5,15]=100.0
q[5,14,5,14]=40.0
q[5,15,5,15]=80.0
q[5,15,5,16]=20.0
q[5,15,5,17]=20.0
q[5,16,5,16]=40.0
q[5,17,5,17]=40.0
q[6,5,9,5]=2.0
q[6,6,9,6]=2.0
q[6,7,9,8]=2.0
q[6,8,9,8]=6.0
q[6,9,9,11]=4.0
q[6,10,9,10]=6.0
q[6,11,9,11]=8.0
q[6,12,9,12]=2.0
q[7,10,1,10]=18.0
q[7,11,1,11]=24.0
q[7,12,1,12]=6.0
q[7,13,1,13]=8.0
q[7,13,1,16]=10.0
q[7,14,1,14]=6.0
q[7,15,1,15]=18.0
q[8,11,0,11]=60.0
q[8,12,0,13]=15.0
q[8,13,0,13]=3.0
q[8,13,10,19]=42.0
q[8,14,10,19]=15.0
q[8,15,10,19]=45.0
q[8,16,10,19]=15.0
q[8,17,10,19]=15.0
q[8,18,10,19]=45.0
q[9,8,0,8]=120.0
q[9,9,0,9]=80.0
q[9,10,0,10]=120.0
q[9,11,0,11]=160.0
q[9,12,0,12]=40.0
q[9,13,0,13]=120.0
q[10,0,0,1]=80.0
q[10,0,0,2]=110.0
q[10,0,0,3]=80.0
q[10,0,0,4]=118.0
q[10,0,4,0]=80.0
q[10,0,4,1]=40.0
q[10,0,4,2]=20.0
q[10,0,4,3]=20.0
q[11,6,0,6]=140.0
q[11,6,0,7]=125.0
q[11,6,0,8]=12.0
