data/mip_solutions/chen_grossmann_miller/reduced_transportation/unbalanced10_cplex.log

Log started (V12.6.3.0) Fri Jan 26 06:19:28 2018

New value for default parallel thread count: 1

Problem '/tmp/tmpSuTSIe.pyomo.lp' read.
Read time = 0.02 sec. (1.93 ticks)

Problem name         : /tmp/tmpSuTSIe.pyomo.lp
Objective sense      : Minimize
Variables            :   27854  [Nneg: 27721,  Binary: 132,  General Integer: 1]
Objective nonzeros   :       1
Linear constraints   :     594  [Less: 132,  Equal: 462]
  Nonzeros           :   83416
  RHS nonzeros       :     200

Variables            : Min LB: 0.000000         Max UB: 1.000000       
Objective nonzeros   : Min   : 1.000000         Max   : 1.000000       
Linear constraints   :
  Nonzeros           : Min   : 1.000000         Max   : 1380.000       
  RHS nonzeros       : Min   : 1.000000         Max   : 755.0000       
Tried aggregator 2 times.
MIP Presolve eliminated 276 rows and 22827 columns.
Aggregator did 5 substitutions.
Reduced MIP has 313 rows, 5022 columns, and 14803 nonzeros.
Reduced MIP has 118 binaries, 0 generals, 0 SOSs, and 0 indicators.
Presolve time = 0.02 sec. (20.18 ticks)
Tried aggregator 1 time.
Reduced MIP has 313 rows, 5022 columns, and 14803 nonzeros.
Reduced MIP has 118 binaries, 0 generals, 0 SOSs, and 0 indicators.
Presolve time = 0.00 sec. (4.69 ticks)
Probing time = 0.00 sec. (0.48 ticks)
MIP emphasis: balance optimality and feasibility.
MIP search method: dynamic search.
Parallel mode: none, using 1 thread.
Root relaxation solution time = 0.03 sec. (47.84 ticks)

        Nodes                                         Cuts/
   Node  Left     Objective  IInf  Best Integer    Best Bound    ItCnt     Gap

      0     0       17.8160    31                     17.8160     2001         
*     0+    0                           39.0000       17.8160            54.32%
      0     0       19.5452    38       39.0000     Cuts: 178     3335   49.88%
      0     0       19.8648    42       39.0000     Cuts: 178     4336   49.06%
      0     0       20.1823    34       39.0000     Cuts: 178     5071   48.25%
*     0+    0                           37.0000       20.1823            45.45%
*     0+    0                           33.0000       20.1823            38.84%
*     0+    0                           31.0000       20.1823            34.90%
*     0+    0                           30.0000       20.1823            32.73%
      0     0       20.7552    54       30.0000     Cuts: 178     5625   30.82%
      0     0       21.2178    53       30.0000     Cuts: 178     7824   29.27%
      0     0       21.2818    44       30.0000     Cuts: 178     8692   29.06%
      0     0       21.3481    35       30.0000     Cuts: 178     9345   28.84%
      0     0       21.4305    46       30.0000     Cuts: 178    10166   28.57%
      0     0       21.5474    38       30.0000     Cuts: 178    11013   28.18%
      0     0       21.5752    46       30.0000     Cuts: 178    12177   28.08%
      0     0       21.6218    47       30.0000     Cuts: 178    12749   27.93%
      0     0       21.6802    45       30.0000     Cuts: 178    13621   27.73%
      0     0       21.6839    49       30.0000     Cuts: 178    14005   27.72%
      0     0       21.6950    47       30.0000     Cuts: 178    14363   27.68%
      0     0       21.7130    49       30.0000     Cuts: 178    15282   27.62%
      0     0       21.7191    50       30.0000     Cuts: 178    15615   27.60%
      0     0       21.7260    49       30.0000     Cuts: 178    16189   27.58%
      0     0       21.7434    53       30.0000     Cuts: 178    16955   27.52%
      0     0       21.7484    49       30.0000     Cuts: 178    17442   27.51%
      0     0       21.7519    49       30.0000     Cuts: 178    17881   27.49%
      0     0       21.7623    47       30.0000     Cuts: 178    18716   27.46%
      0     0       21.7857    37       30.0000     Cuts: 178    20087   27.38%
      0     0       21.7978    34       30.0000     Cuts: 178    20448   27.34%
      0     0       21.8254    37       30.0000     Cuts: 178    21118   27.25%
      0     0       21.8271    39       30.0000     Cuts: 178    21574   27.24%
      0     2       21.8271    35       30.0000       21.8271    21574   27.24%
Elapsed time = 2.58 sec. (4425.57 ticks, tree = 0.01 MB, solutions = 5)
      7     9       21.9808    42       30.0000       21.8271    23837   27.24%
      8    10       21.9117    34       30.0000       21.8271    24279   27.24%
      9    11       22.1085    36       30.0000       21.8271    25521   27.24%
*    10+   10                           28.0000       21.8271            22.05%
     10    12       21.9439    36       28.0000       21.8271    25805   22.05%
     11    13       22.0443    38       28.0000       21.8271    26294   22.05%
     12    14       22.0808    36       28.0000       21.8271    27039   22.05%
     13    15       22.0311    36       28.0000       21.8271    27502   22.05%
     14    16       22.1921    39       28.0000       21.8271    27649   22.05%
     15    17       22.2511    33       28.0000       21.8271    27818   22.05%
     16    18       22.3351    39       28.0000       21.8271    28137   22.05%
Elapsed time = 3.25 sec. (5721.78 ticks, tree = 0.13 MB, solutions = 6)
     63    58       22.4863    36       28.0000       21.8411    36551   22.00%
     64    59       23.0785    28       28.0000       21.8411    36793   22.00%
     65    60       23.4648    29       28.0000       21.8411    37018   22.00%
     66    59        cutoff             28.0000       21.8411    37611   22.00%
     67    60       23.4817    28       28.0000       21.8411    37659   22.00%
     68    61       23.5230    21       28.0000       21.8411    37747   22.00%
     69    62       23.7545    25       28.0000       21.8411    37879   22.00%
*    70+   57                           27.0000       21.8411            19.11%
     70    59       23.6499    29       27.0000       21.8411    38203   19.11%
     71    60       23.7767    25       27.0000       21.8411    38268   19.11%
     72    61       24.0004    21       27.0000       21.8411    38459   19.11%
Elapsed time = 4.00 sec. (7104.83 ticks, tree = 0.51 MB, solutions = 7)
    126    94       23.6213    25       27.0000       21.8471    47729   19.08%
    127    95       23.6213    26       27.0000       21.8471    47836   19.08%
    128    96       24.0104    21       27.0000       21.8471    48405   19.08%
    129    97       24.0352    20       27.0000       21.8471    48437   19.08%
    130    98       24.0664    21       27.0000       21.8471    48586   19.08%
    131    99       24.0664    19       27.0000       21.8471    48632   19.08%
    132   100       24.2366    16       27.0000       21.8471    48928   19.08%
    133   101       24.2366    17       27.0000       21.8471    48958   19.08%
    134   102       24.2510    16       27.0000       21.8471    48994   19.08%
    135   103       24.2510    14       27.0000       21.8471    48997   19.08%
Elapsed time = 4.63 sec. (8236.97 ticks, tree = 0.89 MB, solutions = 7)
*   140+   55                           25.0000       21.8471            12.61%
    160    70       22.8635    25       25.0000       21.8989    56380   12.40%
    161    71       22.9969    30       25.0000       21.8989    56724   12.40%
    162    72       23.0050    27       25.0000       21.8989    56733   12.40%
    163    73       23.2166    22       25.0000       21.8989    57055   12.40%
    164    74       23.2167    29       25.0000       21.8989    57129   12.40%
    165    75       23.2167    26       25.0000       21.8989    57165   12.40%
    166    76       23.2198    22       25.0000       21.8989    57232   12.40%
    167    77       23.2363    21       25.0000       21.8989    57346   12.40%
    168    78       23.2363    20       25.0000       21.8989    57350   12.40%
    169    79       23.2363    18       25.0000       21.8989    57404   12.40%
Elapsed time = 5.28 sec. (9437.12 ticks, tree = 0.70 MB, solutions = 8)
    190    95       22.9885    28       25.0000       21.9033    64458   12.39%
    191    95       23.3126    23       25.0000       21.9033    65427   12.39%
    192    96       23.3726    26       25.0000       21.9033    65499   12.39%
    193    97       23.5259    21       25.0000       21.9033    65519   12.39%
    194    98       23.5264    22       25.0000       21.9033    65753   12.39%
    195    99       23.5310    20       25.0000       21.9033    66087   12.39%
    196    99       23.6996    20       25.0000       21.9033    66428   12.39%
    197   100       23.5310    18       25.0000       21.9033    66546   12.39%
    198   101       23.5310    17       25.0000       21.9033    66549   12.39%
    199   102       23.5481    18       25.0000       21.9033    66691   12.39%
Elapsed time = 5.95 sec. (10641.58 ticks, tree = 0.92 MB, solutions = 8)
    238   120       22.8846    32       25.0000       21.9863    75482   12.05%
    239   121       22.9752    25       25.0000       21.9863    75837   12.05%
    240   122       22.9786    26       25.0000       21.9863    75875   12.05%
    241   123       22.9978    37       25.0000       21.9863    76029   12.05%
    242   124       23.0184    31       25.0000       21.9863    76109   12.05%
    243   125       23.0680    31       25.0000       21.9863    76255   12.05%
    244   124        cutoff             25.0000       21.9863    76321   12.05%
    245   124       23.9734    23       25.0000       21.9863    76577   12.05%
    246   123        cutoff             25.0000       21.9863    76732   12.05%
    247   124       22.4116    32       25.0000       22.0047    78463   11.98%
Elapsed time = 6.87 sec. (12273.60 ticks, tree = 1.16 MB, solutions = 8)
    282   155       23.8281    23       25.0000       22.0100    85276   11.96%
    283   154        cutoff             25.0000       22.0100    85287   11.96%
    284   153        cutoff             25.0000       22.0100    85289   11.96%
    285   154       22.2460    40       25.0000       22.0161    87065   11.94%
    286   155       22.2807    34       25.0000       22.0161    87583   11.94%
    287   156       22.9814    38       25.0000       22.0161    88952   11.94%
    288   155        cutoff             25.0000       22.0161    89193   11.94%
    289   156       23.0230    36       25.0000       22.0161    90035   11.94%
    290   157       23.3067    34       25.0000       22.0161    90847   11.94%
    291   158       23.0424    35       25.0000       22.0161    90972   11.94%
Elapsed time = 7.85 sec. (14072.23 ticks, tree = 1.53 MB, solutions = 8)
    329   180       22.1355    34       25.0000       22.0825    99045   11.67%
    330   181       22.5478    23       25.0000       22.0825    99604   11.67%
    331   182       22.6244    17       25.0000       22.0825    99690   11.67%
    332   183       22.7054    22       25.0000       22.0825    99926   11.67%
    333   184       22.7056    20       25.0000       22.0825    99937   11.67%
    334   185       22.7348    20       25.0000       22.0825   100033   11.67%
    335   186       23.0409    18       25.0000       22.0825   100521   11.67%
    336   187       23.0421    25       25.0000       22.0825   100565   11.67%
    337   188       23.0659    21       25.0000       22.0825   100748   11.67%
    338   189       23.1715    22       25.0000       22.0825   100773   11.67%
Elapsed time = 8.52 sec. (15293.87 ticks, tree = 1.89 MB, solutions = 8)
    372   212       22.3885    34       25.0000       22.1088   108262   11.56%
    373   211        cutoff             25.0000       22.1088   108585   11.56%
    374   212       23.1127    27       25.0000       22.1088   109091   11.56%
    375   213       23.1378    29       25.0000       22.1088   109262   11.56%
    376   212        cutoff             25.0000       22.1088   110281   11.56%
    377   213       23.2753    30       25.0000       22.1088   110867   11.56%
    378   212        cutoff             25.0000       22.1088   110927   11.56%
    379   213       23.3366    32       25.0000       22.1088   111300   11.56%
    380   212       23.9880    31       25.0000       22.1088   112329   11.56%
    381   213       23.3949    33       25.0000       22.1088   112446   11.56%
Elapsed time = 9.31 sec. (16713.35 ticks, tree = 2.17 MB, solutions = 8)
    402   222       22.1932    23       25.0000       22.1368   121053   11.45%
    403   223       22.2651    21       25.0000       22.1368   121184   11.45%
    404   224       22.6520    23       25.0000       22.1368   121412   11.45%
    405   225       22.7699    25       25.0000       22.1368   122027   11.45%
    406   226       22.9864    23       25.0000       22.1368   122655   11.45%
    407   227       23.1529    24       25.0000       22.1368   122920   11.45%
    408   228       23.2604    17       25.0000       22.1368   123095   11.45%
    409   229       23.8854    16       25.0000       22.1368   123138   11.45%
    410   229       23.9060    19       25.0000       22.1368   123328   11.45%
    485   266       22.5776    30       25.0000       22.2996   143900   10.80%
Elapsed time = 11.44 sec. (20559.70 ticks, tree = 2.87 MB, solutions = 8)
    580   311        cutoff             25.0000       22.4331   175818   10.27%
    581   312       22.5145    18       25.0000       22.4857   176399   10.06%
    582   313       23.1676    28       25.0000       22.4857   177342   10.06%
    583   314       23.2313    18       25.0000       22.4857   177548   10.06%
    584   315       23.5629    17       25.0000       22.4857   177647   10.06%
    585   316       23.5659    14       25.0000       22.4857   177700   10.06%
    586   317       23.6643    17       25.0000       22.4857   177967   10.06%
    587   318       23.6759    17       25.0000       22.4857   178088   10.06%
    588   319       23.7969    30       25.0000       22.4857   178480   10.06%
    589   320       23.9232    21       25.0000       22.4857   178614   10.06%
Elapsed time = 13.78 sec. (24788.75 ticks, tree = 3.58 MB, solutions = 8)
    724   369       23.2715    21       25.0000       22.7292   212958    9.08%
    725   370       23.2840    22       25.0000       22.7292   213184    9.08%
    726   371       23.3971    22       25.0000       22.7292   213400    9.08%
    727   372       23.4328    21       25.0000       22.7292   213640    9.08%
    728   373       23.4382    25       25.0000       22.7292   213713    9.08%
    729   374       23.4382    24       25.0000       22.7292   213727    9.08%
    730   375       23.4382    24       25.0000       22.7292   213770    9.08%
    731   376       23.4399    20       25.0000       22.7292   213905    9.08%
    732   377       23.4957    25       25.0000       22.7292   214284    9.08%
    733   378       23.7443    25       25.0000       22.7292   215207    9.08%
Elapsed time = 16.10 sec. (28869.97 ticks, tree = 4.38 MB, solutions = 8)
    856   453       23.7823    17       25.0000       22.7772   247857    8.89%
    857   454       23.7823    16       25.0000       22.7772   247866    8.89%
    858   453        cutoff             25.0000       22.7772   247904    8.89%
    859   454       23.8099    16       25.0000       22.7772   247949    8.89%
    860   455       23.8099    15       25.0000       22.7772   247977    8.89%
    861   456       23.8261    13       25.0000       22.7772   247983    8.89%
    862   457       23.8283    12       25.0000       22.7772   248014    8.89%
    863   458       23.8283    10       25.0000       22.7772   248015    8.89%
    864   459       23.8297     8       25.0000       22.7772   248024    8.89%
    865   460       23.8299     8       25.0000       22.7772   248031    8.89%
Elapsed time = 18.30 sec. (32714.55 ticks, tree = 5.50 MB, solutions = 8)
   1016   534       23.8670    21       25.0000       22.9251   279505    8.30%
   1017   533        cutoff             25.0000       22.9251   279980    8.30%
   1018   532        cutoff             25.0000       22.9251   280040    8.30%
   1019   533       23.0914    22       25.0000       22.9334   280457    8.27%
   1020   532        cutoff             25.0000       22.9334   280751    8.27%
   1021   533       23.9251    19       25.0000       22.9334   280973    8.27%
   1022   532        cutoff             25.0000       22.9334   280996    8.27%
   1023   531        cutoff             25.0000       22.9334   281330    8.27%
   1024   530        cutoff             25.0000       22.9373   281723    8.25%
   1025   529        cutoff             25.0000       22.9514   281927    8.19%
Elapsed time = 20.72 sec. (36892.33 ticks, tree = 6.57 MB, solutions = 8)
   1139   547       23.3210    25       25.0000       23.0242   315743    7.90%
   1140   548       23.3212    26       25.0000       23.0242   316066    7.90%
   1141   548       23.7426    23       25.0000       23.0242   316802    7.90%
   1142   549       23.9053    23       25.0000       23.0242   317100    7.90%
   1143   550       23.9053    28       25.0000       23.0242   317254    7.90%
   1144   551       23.9068    26       25.0000       23.0242   317513    7.90%
   1145   552       23.9093    22       25.0000       23.0242   317791    7.90%
   1146   553       23.9104    24       25.0000       23.0242   317843    7.90%
   1147   553       23.9104    22       25.0000       23.0242   317902    7.90%
   1148   552        cutoff             25.0000       23.0242   318021    7.90%
Elapsed time = 23.17 sec. (41133.79 ticks, tree = 6.98 MB, solutions = 8)
   1300   609       23.6469    16       25.0000       23.0723   350427    7.71%
   1301   608        cutoff             25.0000       23.0723   350429    7.71%
   1302   607        cutoff             25.0000       23.0723   350469    7.71%
   1303   608       23.1104    31       25.0000       23.0723   351192    7.71%
   1304   609       23.2046    23       25.0000       23.0723   351410    7.71%
   1305   610       23.2544    29       25.0000       23.0723   352025    7.71%
   1306   611       23.2545    27       25.0000       23.0723   352060    7.71%
   1307   612       23.2623    28       25.0000       23.0723   352134    7.71%
   1308   613       23.3003    27       25.0000       23.0723   352308    7.71%
   1309   614       23.3663    23       25.0000       23.0723   352597    7.71%
Elapsed time = 25.56 sec. (45288.07 ticks, tree = 8.02 MB, solutions = 8)
   1439   646       23.6208    17       25.0000       23.1361   385739    7.46%
   1440   647       23.6208    18       25.0000       23.1361   385862    7.46%
   1441   648       23.6374    17       25.0000       23.1361   386034    7.46%
   1442   649       23.7401    17       25.0000       23.1361   386056    7.46%
   1443   650       23.7413    18       25.0000       23.1361   386069    7.46%
   1444   651       23.7413    19       25.0000       23.1361   386142    7.46%
   1445   652       23.7413    15       25.0000       23.1361   386246    7.46%
   1446   653       23.7632    16       25.0000       23.1361   386297    7.46%
   1447   654       23.9000    17       25.0000       23.1361   386470    7.46%
   1448   655       23.9000    16       25.0000       23.1361   386515    7.46%
Elapsed time = 27.91 sec. (49363.84 ticks, tree = 8.77 MB, solutions = 8)
   1497   675       22.0493    44       25.0000       23.1487   403487    7.41%
   1498   676       22.1609    40       25.0000       23.1487   404661    7.41%
   1499   677       22.3138    32       25.0000       23.1487   405722    7.41%
   1500   678       22.1892    44       25.0000       23.1487   406519    7.41%
   1501   679       23.3395    40       25.0000       23.1487   408192    7.41%
   1502   565    infeasible             25.0000       23.1487   408319    7.41%
   1503   565       22.7536    38       25.0000       23.1487   408493    7.41%
   1504   565       22.7786    35       25.0000       23.1487   408624    7.41%
   1505   566       22.7999    30       25.0000       23.1487   408919    7.41%
   1506   566       23.1490    25       25.0000       23.1487   409228    7.41%
Elapsed time = 31.75 sec. (55796.80 ticks, tree = 7.60 MB, solutions = 8)
   1602   336       23.1284    30       25.0000       23.1487   431440    7.41%
   1603   337       23.1380    24       25.0000       23.1487   431603    7.41%
   1604   338       23.1402    23       25.0000       23.1487   431637    7.41%
   1605   339       23.2311    21       25.0000       23.1487   431939    7.41%
   1606   340       23.2484    18       25.0000       23.1487   432011    7.41%
   1607   341       23.2795    17       25.0000       23.1487   432105    7.41%
   1608   341       23.4899    22       25.0000       23.1487   432424    7.41%
   1609   341       23.7031    19       25.0000       23.1487   432453    7.41%
   1610   342       23.7073    18       25.0000       23.1487   432469    7.41%
   1611   341       23.7123    17       25.0000       23.1487   432473    7.41%
Elapsed time = 33.96 sec. (59944.76 ticks, tree = 4.20 MB, solutions = 8)
   1707   334       23.0159    18       25.0000       23.1487   456695    7.41%
   1708   335       23.0159    13       25.0000       23.1487   456844    7.41%
   1709   335       23.0208    12       25.0000       23.1487   456905    7.41%
   1710   335       23.0208    10       25.0000       23.1487   456928    7.41%
   1711   336       23.1672    11       25.0000       23.1487   457489    7.41%
   1712   336       23.1681    20       25.0000       23.1487   457529    7.41%
   1713   336       23.2990    14       25.0000       23.1487   457624    7.41%
   1714   336       23.2992    14       25.0000       23.1487   457639    7.41%
   1715   337       23.2994    11       25.0000       23.1487   457644    7.41%
   1716   338       23.5721    14       25.0000       23.1487   457856    7.41%
Elapsed time = 36.23 sec. (64142.74 ticks, tree = 3.81 MB, solutions = 8)
   1817   328       23.5665    23       25.0000       23.1487   480728    7.41%
   1818   329       23.5885    25       25.0000       23.1487   480774    7.41%
   1819   328       23.7717    26       25.0000       23.1487   480869    7.41%
   1820   329       23.7717    22       25.0000       23.1487   480938    7.41%
   1821   329       23.9211    22       25.0000       23.1487   480995    7.41%
   1822   327        cutoff             25.0000       23.1487   481048    7.41%
   1823   328       23.2386    28       25.0000       23.1487   482238    7.41%
   1824   326        cutoff             25.0000       23.1487   482304    7.41%
   1825   324        cutoff             25.0000       23.1487   482521    7.41%
   1826   322        cutoff             25.0000       23.1487   483158    7.41%
Elapsed time = 38.61 sec. (68453.65 ticks, tree = 3.40 MB, solutions = 8)
   1957   301       23.1709    18       25.0000       23.1487   513494    7.41%
   1958   302       23.1709    18       25.0000       23.1487   513502    7.41%
   1959   302       23.1710    16       25.0000       23.1487   513506    7.41%
   1960   302       23.1877    17       25.0000       23.1487   513630    7.41%
   1961   303       23.1915    20       25.0000       23.1487   513712    7.41%
   1962   303       23.1987    19       25.0000       23.1487   513736    7.41%
   1963   303       23.2087    16       25.0000       23.1487   513759    7.41%
   1964   303       23.2087    15       25.0000       23.1487   513764    7.41%
   1965   304       23.2652    18       25.0000       23.1487   513821    7.41%
   1966   304       23.2778    17       25.0000       23.1487   513862    7.41%
Elapsed time = 40.72 sec. (72353.30 ticks, tree = 2.95 MB, solutions = 8)
   2137   311       23.4909    20       25.0000       23.1548   541446    7.38%
   2138   312       23.4991    21       25.0000       23.1548   541499    7.38%
   2139   313       24.0000    16       25.0000       23.1548   541965    7.38%
   2140   312        cutoff             25.0000       23.1548   542013    7.38%
   2141   313       24.0000    19       25.0000       23.1548   542279    7.38%
   2142   314       24.0000    19       25.0000       23.1548   542426    7.38%
   2143   315       24.0000    16       25.0000       23.1548   542555    7.38%
   2144   316       24.0000    15       25.0000       23.1548   542583    7.38%
   2145   317       24.0000    11       25.0000       23.1548   542916    7.38%
   2146   318       24.0000    11       25.0000       23.1548   543010    7.38%
Elapsed time = 42.93 sec. (76358.26 ticks, tree = 2.92 MB, solutions = 8)
   2269   351       23.4546    38       25.0000       23.2050   573821    7.18%
   2270   352       23.7740    26       25.0000       23.2050   574682    7.18%
   2271   353       23.8756    21       25.0000       23.2050   574875    7.18%
   2272   353       23.9518    28       25.0000       23.2050   575038    7.18%
   2273   353       23.9676    25       25.0000       23.2050   575130    7.18%
   2274   353       23.9676    25       25.0000       23.2050   575135    7.18%
   2275   354       23.9678    25       25.0000       23.2050   575146    7.18%
   2276   354       23.9770    21       25.0000       23.2050   575209    7.18%
   2277   355       23.9940    18       25.0000       23.2050   575234    7.18%
   2278   354       23.9963    17       25.0000       23.2050   575242    7.18%
Elapsed time = 45.24 sec. (80572.35 ticks, tree = 3.34 MB, solutions = 8)
   2426   401       24.0000    14       25.0000       23.2466   605921    7.01%
   2427   402       24.0000     8       25.0000       23.2466   605941    7.01%
   2428   403       24.0000     9       25.0000       23.2466   606044    7.01%
   2429   402        cutoff             25.0000       23.2466   606119    7.01%
   2430   401        cutoff             25.0000       23.2466   606134    7.01%
   2431   402       23.5213    18       25.0000       23.2468   606790    7.01%
   2432   403       23.5254    17       25.0000       23.2468   606796    7.01%
   2433   404       23.6414    20       25.0000       23.2468   606897    7.01%
   2434   405       23.7025    17       25.0000       23.2468   606933    7.01%
   2435   406       23.8561    27       25.0000       23.2468   607165    7.01%
Elapsed time = 47.48 sec. (84556.91 ticks, tree = 3.92 MB, solutions = 8)
   2536   415        cutoff             25.0000       23.3015   635272    6.79%
   2537   414        cutoff             25.0000       23.3015   635952    6.79%
   2538   413        cutoff             25.0000       23.3018   636495    6.79%
   2539   413       23.6901    23       25.0000       23.3033   637318    6.79%
   2540   414       23.7044    25       25.0000       23.3033   637409    6.79%
   2541   415       23.7046    23       25.0000       23.3033   637412    6.79%
   2542   415       23.7766    23       25.0000       23.3033   637439    6.79%
   2543   416       23.7766    22       25.0000       23.3033   637448    6.79%
   2544   415        cutoff             25.0000       23.3033   637584    6.79%
   2545   415       23.7766    21       25.0000       23.3033   637672    6.79%
Elapsed time = 49.87 sec. (88763.64 ticks, tree = 4.07 MB, solutions = 8)
   2660   429       24.0000    20       25.0000       23.3931   666160    6.43%
   2661   430       24.0000    18       25.0000       23.3931   666161    6.43%
   2662   431       24.0000    14       25.0000       23.3931   666326    6.43%
   2663   432       24.0000    12       25.0000       23.3931   666346    6.43%
   2664   433       24.0000    11       25.0000       23.3931   666371    6.43%
   2665   434       24.0000    11       25.0000       23.3931   666483    6.43%
   2666   433        cutoff             25.0000       23.3931   666595    6.43%
   2667   432        cutoff             25.0000       23.3931   666769    6.43%
   2668   431        cutoff             25.0000       23.3941   667558    6.42%
   2669   432       23.6191    23       25.0000       23.4000   668020    6.40%
Elapsed time = 52.18 sec. (92873.92 ticks, tree = 4.33 MB, solutions = 8)
   2784   435       23.9243    26       25.0000       23.5028   694087    5.99%
   2785   436       23.9243    26       25.0000       23.5028   694123    5.99%
   2786   437       23.9243    20       25.0000       23.5028   694307    5.99%
   2787   438       23.9243    19       25.0000       23.5028   694356    5.99%
   2788   438       23.9243    17       25.0000       23.5028   694439    5.99%
   2789   437       23.9463    20       25.0000       23.5028   694546    5.99%
   2790   436        cutoff             25.0000       23.5061   695432    5.98%
   2791   437       23.6782    31       25.0000       23.5087   695946    5.97%
   2792   436        cutoff             25.0000       23.5087   696315    5.97%
   2793   437       23.7328    31       25.0000       23.5087   696953    5.97%
Elapsed time = 54.65 sec. (97290.50 ticks, tree = 4.50 MB, solutions = 8)
   2913   421       23.9687    20       25.0000       23.5911   725541    5.64%
   2914   421       24.0000    22       25.0000       23.5911   725980    5.64%
   2915   422       24.0000    22       25.0000       23.5911   726600    5.64%
   2916   421        cutoff             25.0000       23.5911   727029    5.64%
   2917   420        cutoff             25.0000       23.5911   727452    5.64%
   2918   419        cutoff             25.0000       23.5911   727602    5.64%
   2919   418        cutoff             25.0000       23.5918   727640    5.63%
   2920   417        cutoff             25.0000       23.5937   727665    5.63%
   2921   416        cutoff             25.0000       23.5952   727969    5.62%
   2922   415        cutoff             25.0000       23.5967   727981    5.61%
Elapsed time = 56.95 sec. (101382.14 ticks, tree = 4.36 MB, solutions = 8)
   3086   383       23.6904    22       25.0000       23.6904   758525    5.24%
   3087   384       23.6904    24       25.0000       23.6904   758899    5.24%
   3088   385       23.7660    26       25.0000       23.6904   759923    5.24%
   3089   386       23.7660    24       25.0000       23.6904   760148    5.24%
   3090   387       23.7684    24       25.0000       23.6904   760405    5.24%
   3091   386        cutoff             25.0000       23.6904   760996    5.24%
   3092   385        cutoff             25.0000       23.6904   762074    5.24%
   3093   386       23.6966    18       25.0000       23.6904   762422    5.24%
   3094   387       23.7226    21       25.0000       23.6904   762600    5.24%
   3095   388       23.8317    22       25.0000       23.6904   762989    5.24%
Elapsed time = 59.46 sec. (105804.09 ticks, tree = 4.15 MB, solutions = 8)
   3250   344       23.8388    22       25.0000       23.7755   794797    4.90%
   3251   344       23.9844    26       25.0000       23.7755   795200    4.90%
   3252   344       24.0000    16       25.0000       23.7755   795282    4.90%
   3253   345       24.0000    21       25.0000       23.7755   795444    4.90%
   3254   346       24.0000    20       25.0000       23.7755   795648    4.90%
   3255   345        cutoff             25.0000       23.7755   796160    4.90%
   3256   344        cutoff             25.0000       23.7755   797659    4.90%
   3257   344       23.7814    21       25.0000       23.7756   797778    4.90%
   3258   344       23.7817    20       25.0000       23.7756   797812    4.90%
   3259   344       23.8724    23       25.0000       23.7756   797858    4.90%
Elapsed time = 61.85 sec. (110060.23 ticks, tree = 3.76 MB, solutions = 8)
   3465   207       24.0000    14       25.0000       23.9448   829456    4.22%
   3466   208       24.0000     8       25.0000       23.9448   829896    4.22%
   3467   209       24.0000    10       25.0000       23.9448   830332    4.22%
   3468   208        cutoff             25.0000       23.9448   830898    4.22%
   3469   207        cutoff             25.0000       23.9448   831074    4.22%
   3470   206        cutoff             25.0000       23.9466   831294    4.21%
   3471   205        cutoff             25.0000       23.9471   831335    4.21%
   3472   204        cutoff             25.0000       23.9485   831338    4.21%
   3473   204       23.9745    30       25.0000       23.9485   832088    4.21%
   3474   204       23.9917    23       25.0000       23.9485   832385    4.21%
Elapsed time = 64.23 sec. (114249.75 ticks, tree = 2.29 MB, solutions = 8)

Cover cuts applied:  18
Implied bound cuts applied:  276
Flow cuts applied:  77
Mixed integer rounding cuts applied:  265
Zero-half cuts applied:  2
Lift and project cuts applied:  17
Gomory fractional cuts applied:  1

Root node processing (before b&c):
  Real time             =    2.58 sec. (4426.32 ticks)
Sequential b&c:
  Real time             =   62.26 sec. (110863.52 ticks)
                          ------------
Total (root+branch&cut) =   64.84 sec. (115289.85 ticks)

Solution pool: 8 solutions saved.

MIP - Integer optimal, tolerance (0.04/1e-06):  Objective =  2.5000000000e+01
Current MIP best bound =  2.4000000000e+01 (gap = 1, 4.00%)
Solution time =   64.84 sec.  Iterations = 841465  Nodes = 3547 (151)
Deterministic time = 115289.93 ticks  (1777.97 ticks/sec)


Incumbent solution written to file '/tmp/tmp0Ozfcj.cplex.sol'.
